SCIP Status        : solving was interrupted [time limit reached]
Total Time         :    3600.02
  solving          :    3600.00
  presolving       :       0.43 (included in solving)
  reading          :       0.02
  copying          :       2.16 (53 #copies) (minimal 0.00, maximal 0.17, average 0.04)
Original Problem   :
  Problem name     : bbbenchmark/g05_100.4.cut
  Variables        : 101 (100 binary, 0 integer, 0 implicit integer, 1 continuous)
  Constraints      : 1 initial, 1 maximal
  Objective        : minimize, 1 non-zeros (abs.min = 1, abs.max = 1)
Presolved Problem  :
  Problem name     : t_bbbenchmark/g05_100.4.cut
  Variables        : 1765 (100 binary, 0 integer, 1648 implicit integer, 17 continuous)
  Constraints      : 1697 initial, 11700 maximal
  Objective        : minimize, 1 non-zeros (abs.min = 1, abs.max = 1)
  Nonzeros         : 8443 constraint, 202 clique table
Presolvers         :   ExecTime  SetupTime  Calls  FixedVars   AggrVars   ChgTypes  ChgBounds   AddHoles    DelCons    AddCons   ChgSides   ChgCoefs
  boundshift       :       0.00       0.00      0          0          0          0          0          0          0          0          0          0
  convertinttobin  :       0.00       0.00      0          0          0          0          0          0          0          0          0          0
  domcol           :       0.00       0.00      1          0          0          0          0          0          0          0          0          0
  dualagg          :       0.00       0.00      0          0          0          0          0          0          0          0          0          0
  dualcomp         :       0.00       0.00      1          0          0          0          0          0          0          0          0          0
  dualinfer        :       0.00       0.00      0          0          0          0          0          0          0          0          0          0
  dualsparsify     :       0.00       0.00      1          0          0          0          0          0          0          0          0          0
  gateextraction   :       0.00       0.00      0          0          0          0          0          0          0          0          0          0
  implics          :       0.00       0.00      2          0          0          0          0          0          0          0          0          0
  inttobinary      :       0.00       0.00      0          0          0          0          0          0          0          0          0          0
  qpkktref         :       0.00       0.00      0          0          0          0          0          0          0          0          0          0
  redvub           :       0.00       0.00      0          0          0          0          0          0          0          0          0          0
  sparsify         :       0.00       0.00      1          0          0          0          0          0          0          0          0          0
  stuffing         :       0.00       0.00      0          0          0          0          0          0          0          0          0          0
  trivial          :       0.00       0.00      4          0          0          0          0          0          0          0          0          0
  tworowbnd        :       0.00       0.00      0          0          0          0          0          0          0          0          0          0
  dualfix          :       0.00       0.00      4          0          0          0          0          0          0          0          0          0
  genvbounds       :       0.00       0.00      0          0          0          0          0          0          0          0          0          0
  probing          :       0.32       0.00      1          0          0          0          0          0          0          0          0          0
  pseudoobj        :       0.00       0.00      1          0          0          0          1          0          0          0          0          0
  symmetry         :       0.00       0.00      0          0          0          0          0          0          0          0          0          0
  vbounds          :       0.00       0.00      1          0          0          0          0          0          0          0          0          0
  varbound         :       0.00       0.00      2          0          0          0          0          0          0          0          0          0
  and              :       0.01       0.01      2          0          0          0          0          0          0          0          0          0
  linear           :       0.00       0.00      2          0          0          0          0          0          0          0          0          0
  logicor          :       0.00       0.00      0          0          0          0          0          0          0          0          0          0
  bounddisjunction :       0.00       0.00      0          0          0          0          0          0          0          0          0          0
  nonlinear        :       0.10       0.01      5          0          0          0          1          0          0       1696          0          0
  benders          :       0.00       0.00      0          0          0          0          0          0          0          0          0          0
  components       :       0.00       0.00      1          0          0          0          0          0          0          0          0          0
  root node        :          -          -      -          0          -          -         12          -          -          -          -          -
Constraints        :     Number  MaxNumber  #Separate #Propagate    #EnfoLP    #EnfoRelax  #EnfoPS    #Check   #ResProp    Cutoffs    DomReds       Cuts    Applied      Conss   Children
  benderslp        :          0          0          0          0     124374          0          0       9995          0          0          0          0          0          0          0
  integral         :          0          0          0          0     124374          0          0       9995          0          0        578          0          0        222     248340
  varbound         :         16         16         58     781150          0          0          0        140          0          0      61037          0          0          0          0
  and              :       1648       1648     145684     833159          2          0          0        140     488241          0    1970640       7731       7572          0          0
  linear           :         33+        42         58     833197          2          0          0        138       1066          0     475052          0          0          0          0
  logicor          :          0+      9540          0     135223          0          0          0          0         26        644         46          0          0          0          0
  bounddisjunction :          0+       573          0      54395          0          0          0          0          0         15          1          0          0          0          0
  benders          :          0          0          0          0          2          0          0         26          0          0          0          0          0          0          0
  countsols        :          0          0          0          0          2          0          0         26          0          0          0          0          0          0          0
  components       :          0          0          0          0          0          0          0          0          0          0          0          0          0          0          0
Constraint Timings :  TotalTime  SetupTime   Separate  Propagate     EnfoLP     EnfoPS     EnfoRelax   Check    ResProp    SB-Prop
  benderslp        :       0.12       0.00       0.00       0.00       0.12       0.00       0.00       0.00       0.00       0.00
  integral         :      65.05       0.00       0.00       0.00      65.03       0.00       0.00       0.02       0.00       0.00
  varbound         :       0.99       0.00       0.00       0.99       0.00       0.00       0.00       0.00       0.00       0.00
  and              :     149.17       0.01     104.92      43.30       0.00       0.00       0.00       0.01       0.40       0.53
  linear           :       6.94       0.00       0.01       6.86       0.00       0.00       0.00       0.00       0.00       0.07
  logicor          :      12.79       0.00       0.00      12.78       0.00       0.00       0.00       0.00       0.00       0.01
  bounddisjunction :       0.89       0.00       0.00       0.89       0.00       0.00       0.00       0.00       0.00       0.00
  benders          :       0.00       0.00       0.00       0.00       0.00       0.00       0.00       0.00       0.00       0.00
  countsols        :       0.00       0.00       0.00       0.00       0.00       0.00       0.00       0.00       0.00       0.00
  components       :       0.28       0.00       0.00       0.28       0.00       0.00       0.00       0.00       0.00       0.00
Propagators        : #Propagate   #ResProp    Cutoffs    DomReds
  dualfix          :          4          0          0          0
  genvbounds       :          0          0          0          0
  nlobbt           :          0          0          0          0
  obbt             :          0          0          0          0
  probing          :          0          0          0          0
  pseudoobj        :     538913         57          0       1351
  redcost          :     288575          0          0     171510
  rootredcost      :         18          0          0          0
  symmetry         :          0          0          0          0
  vbounds          :     128005          0          0          0
Propagator Timings :  TotalTime  SetupTime   Presolve  Propagate    ResProp    SB-Prop
  dualfix          :       0.00       0.00       0.00       0.00       0.00       0.00
  genvbounds       :       0.77       0.00       0.00       0.76       0.00       0.01
  nlobbt           :       0.00       0.00       0.00       0.00       0.00       0.00
  obbt             :       0.00       0.00       0.00       0.00       0.00       0.00
  probing          :       0.32       0.00       0.32       0.00       0.00       0.00
  pseudoobj        :       0.98       0.00       0.00       0.97       0.00       0.01
  redcost          :      23.45       0.00       0.00      23.45       0.00       0.00
  rootredcost      :       0.97       0.00       0.00       0.95       0.00       0.02
  symmetry         :       0.42       0.00       0.00       0.42       0.00       0.00
  vbounds          :       0.68       0.00       0.00       0.67       0.00       0.01
Conflict Analysis  :       Time      Calls    Success    DomReds  Conflicts   Literals    Reconvs ReconvLits   Dualrays   Nonzeros   LP Iters   (pool size: [10000,10000])
  propagation      :       0.03        659        526          -        606       66.5          0        0.0          -          -          -
  infeasible LP    :       0.27        134        134          -       3520      140.8          0        0.0        135      153.9          0
  bound exceed. LP :      25.48       6154       5728          -     145945      110.7          0        0.0          0        0.0      62026
  strong branching :       0.00          0          0          -          0        0.0          0        0.0          -          -          0
  pseudo solution  :       0.00          0          0          -          0        0.0          0        0.0          -          -          -
  applied globally :       0.77          -          -          0      34729      116.9          -          -        135          -          -
  applied locally  :          -          -          -          0          0        0.0          -          -          0          -          -
Separators         :   ExecTime  SetupTime      Calls  RootCalls    Cutoffs    DomReds  FoundCuts ViaPoolAdd  DirectAdd    Applied ViaPoolApp  DirectApp      Conss
  cut pool         :       9.44          -      29254         82          -          -      38246    2751113          -          -          -          -          -    (maximal pool size:       5143)
  aggregation      :      13.81       0.00       5587         58          0          0        109       1481          0        313        313          0          0
  > cmir           :          -          -          -          -          -          -          -       1481          0        313        313          0          -
  > flowcover      :          -          -          -          -          -          -          -          0          0          0          0          0          -
  > knapsackcover  :          -          -          -          -          -          -          -          0          0          0          0          0          -
  cgmip            :       0.00       0.00          0          0          0          0          0          0          0          0          0          0          0
  clique           :       0.00       0.00         58         58          0          0          0          0          0          0          0          0          0
  closecuts        :       0.00       0.00          0          0          0          0          0          0          0          0          0          0          0
  convexproj       :       0.00       0.00          0          0          0          0          0          0          0          0          0          0          0
  disjunctive      :       0.00       0.00          0          0          0          0          0          0          0          0          0          0          0
  eccuts           :       0.00       0.00          0          0          0          0          0          0          0          0          0          0          0
  gauge            :       0.00       0.00          0          0          0          0          0          0          0          0          0          0          0
  gomory           :       0.00       0.00          0          0          0          0          0          0          0          0          0          0          0
  > gomorymi       :          -          -          -          -          -          -          -          0          0          0          0          0          -
  > strongcg       :          -          -          -          -          -          -          -          0          0          0          0          0          -
  impliedbounds    :       0.45       0.00       5587         58          0          0          0          0          0          0          0          0          0
  interlattice     :       0.22       0.00         30         30          0          0         30          0         30         30          0         30          0
  interminor       :       0.00       0.00          0          0          0          0          0          0          0          0          0          0          0
  intersub         :       0.00       0.00          0          0          0          0          0          0          0          0          0          0          0
  intobj           :       0.00       0.00          0          0          0          0          0          0          0          0          0          0          0
  mcf              :       0.00       0.00          1          1          0          0          0          0          0          0          0          0          0
  minor            :       0.00       0.00          0          0          0          0          0          0          0          0          0          0          0
  mixing           :       0.02       0.00       5587         58          0          0          0          0          0          0          0          0          0
  oddcycle         :       0.00       0.00          0          0          0          0          0          0          0          0          0          0          0
  rapidlearning    :       0.04       0.00          0          0          0          0          0          0          0          0          0          0          0
  rlt              :       0.00       0.00         10         10          0          0          0          0          0          0          0          0          0
  zerohalf         :      44.74       0.00       4689         20          0          0      38137    2749632          0     207350     207350          0          0
Cutselectors       :   ExecTime  SetupTime      Calls  RootCalls   Selected     Forced   Filtered  RootSelec   RootForc   RootFilt 
  hybrid           :       3.62       0.00      20310         56     215265          0    2543609        224          0          2
Pricers            :   ExecTime  SetupTime      Calls       Vars
  problem variables:       0.00          -          0          0
Branching Rules    :   ExecTime  SetupTime   BranchLP  BranchExt   BranchPS    Cutoffs    DomReds       Cuts      Conss   Children
  allfullstrong    :       0.00       0.00          0          0          0          0          0          0          0          0
  cloud            :       0.00       0.00          0          0          0          0          0          0          0          0
  distribution     :       0.00       0.00          0          0          0          0          0          0          0          0
  fullstrong       :       0.00       0.00          0          0          0          0          0          0          0          0
  inference        :       0.00       0.00          0          0          0          0          0          0          0          0
  leastinf         :       0.00       0.00          0          0          0          0          0          0          0          0
  lookahead        :       0.00       0.00          0          0          0          0          0          0          0          0
  mostinf          :       0.00       0.00          0          0          0          0          0          0          0          0
  multaggr         :       0.00       0.00          0          0          0          0          0          0          0          0
  nodereopt        :       0.00       0.00          0          0          0          0          0          0          0          0
  pscost           :       0.00       0.00          0          0          0          0          0          0          0          0
  random           :       0.00       0.00          0          0          0          0          0          0          0          0
  relpscost        :      64.53       0.00     124372          0          0          0        578          0        227     248340
  vanillafullstrong:       0.00       0.00          0          0          0          0          0          0          0          0
Primal Heuristics  :   ExecTime  SetupTime      Calls      Found       Best
  LP solutions     :       0.00          -          -          2          2
  relax solutions  :       0.00          -          -          0          0
  pseudo solutions :       0.00          -          -          0          0
  strong branching :       0.03          -          -          0          0
  actconsdiving    :       0.00       0.00          0          0          0
  adaptivediving   :       3.84       0.00         32          0          0
  alns             :       2.38       0.00         17          1          1
  bound            :       0.00       0.00          0          0          0
  clique           :       0.02       0.00          1          0          0
  coefdiving       :       0.00       0.00          0          0          0
  completesol      :       0.00       0.00          0          0          0
  conflictdiving   :     150.94       0.00       1206          4          4
  crossover        :       2.98       0.00         10          2          2
  dins             :       0.00       0.00          0          0          0
  distributiondivin:      80.89       0.00        352          0          0
  dps              :       0.00       0.00          0          0          0
  dualval          :       0.00       0.00          0          0          0
  farkasdiving     :       0.01       0.00          0          0          0
  feaspump         :       0.18       0.00          1          1          1
  fixandinfer      :       0.00       0.00          0          0          0
  fracdiving       :      55.51       0.00        498          0          0
  gins             :       0.12       0.00          0          0          0
  guideddiving     :      59.36       0.00        459          2          2
  indicator        :       0.11       0.00          0          0          0
  indicatordiving  :       0.00       0.00          0          0          0
  intdiving        :       0.00       0.00          0          0          0
  intshifting      :       0.67       0.00         93          0          0
  linesearchdiving :      54.07       0.00        458          1          1
  localbranching   :       0.00       0.00          0          0          0
  locks            :       0.01       0.00          1          0          0
  lpface           :       0.15       0.00          0          0          0
  mpec             :     333.93       0.00         11          4          4
  multistart       :       0.00       0.00          0          0          0
  mutation         :       0.00       0.00          0          0          0
  nlpdiving        :      42.57       0.00          2          0          0
  objpscostdiving  :      32.02       0.00         50          3          0
  octane           :       0.00       0.00          0          0          0
  ofins            :       0.11       0.00          0          0          0
  oneopt           :       0.13       0.00         21          0          0
  padm             :       0.00       0.00          0          0          0
  proximity        :       0.00       0.00          0          0          0
  pscostdiving     :      55.70       0.00        406          1          1
  randrounding     :       0.86       0.00       9965          0          0
  rens             :       0.00       0.00          0          0          0
  reoptsols        :       0.00       0.00          0          0          0
  repair           :       0.00       0.00          0          0          0
  rins             :       5.26       0.00         25          0          0
  rootsoldiving    :      30.51       0.00         37          0          0
  rounding         :       1.91       0.00       5246          0          0
  shiftandpropagate:       0.00       0.00          0          0          0
  shifting         :      33.99       0.00       7004          1          1
  simplerounding   :       0.20       0.00          0          0          0
  subnlp           :     230.91       0.00          0          0          0
  trivial          :       0.00       0.00          2          2          2
  trivialnegation  :       0.00       0.00          0          0          0
  trustregion      :       0.00       0.00          0          0          0
  trysol           :       0.20       0.00          0          0          0
  twoopt           :       0.00       0.00          0          0          0
  undercover       :       2.06       0.00          1          1          1
  vbounds          :       0.00       0.00          0          0          0
  veclendiving     :      54.79       0.00        440          0          0
  zeroobj          :       0.00       0.00          0          0          0
  zirounding       :       0.42       0.00       1000          0          0
  other solutions  :          -          -          -          0          -
Diving (single)    :      Calls      Nodes   LP Iters Backtracks  Conflicts   MinDepth   MaxDepth   AvgDepth  RoundSols  NLeafSols  MinSolDpt  MaxSolDpt  AvgSolDpt
  actconsdiving    :          0          -          -          -          -          -          -          -          -          -          -          -          -
  coefdiving       :          0          -          -          -          -          -          -          -          -          -          -          -          -
  conflictdiving   :       1206      58920    1488564       1088      64266         56         87       71.4          0          4         65         73       69.0
  distributiondivin:        352      13837     551807        394       6835         53         76       60.5          0          -          -          -          -
  farkasdiving     :          0          -          -          -          -          -          -          -          -          -          -          -          -
  fracdiving       :        498      44592     522894        186       3256         56        354      112.0          0          -          -          -          -
  guideddiving     :        459      40061     553340        186       9528         59        235      109.8          0          2         80        137      108.5
  indicatordiving  :          0          -          -          -          -          -          -          -          -          -          -          -          -
  linesearchdiving :        458      20688     548544        341      24517         52         92       67.0          0          1         79         79       79.0
  pscostdiving     :        406      17575     562209        418      10443         52         79       65.1          0          1         78         78       78.0
  veclendiving     :        440      19271     547871        401      28744         54         91       65.3          0          -          -          -          -
Diving (adaptive)  :      Calls      Nodes   LP Iters Backtracks  Conflicts   MinDepth   MaxDepth   AvgDepth  RoundSols  NLeafSols  MinSolDpt  MaxSolDpt  AvgSolDpt
  actconsdiving    :          4        156       4736          4        115         56         61       58.8          0          -          -          -          -
  coefdiving       :         10        367      11181          7        559         55         72       62.7          0          -          -          -          -
  conflictdiving   :          0          -          -          -          -          -          -          -          -          -          -          -          -
  distributiondivin:          0          -          -          -          -          -          -          -          -          -          -          -          -
  farkasdiving     :          0          -          -          -          -          -          -          -          -          -          -          -          -
  fracdiving       :          1        107       1182          0          0        129        129      129.0          0          -          -          -          -
  guideddiving     :          3        198       2219          2         50         86        105       97.7          0          -          -          -          -
  indicatordiving  :          0          -          -          -          -          -          -          -          -          -          -          -          -
  linesearchdiving :          7        320       8540          5        418         59         79       69.9          0          -          -          -          -
  pscostdiving     :          2        104       3141          2         53         69         71       70.0          0          -          -          -          -
  veclendiving     :          5        216       4619          1        205         54         78       66.8          0          -          -          -          -
Neighborhoods      :      Calls  SetupTime  SolveTime SolveNodes       Sols       Best       Exp3  EpsGreedy        UCB TgtFixRate  Opt  Inf Node Stal  Sol  Usr Othr Actv
  rens             :          3       0.38       0.15         29          0          0    0.00000   -1.00000    0.51231      0.437    0    3    0    0    0    0    0    1
  rins             :          2       0.04       0.11         61          0          0    0.00000   -1.00000    0.44600      0.850    0    1    0    1    0    0    0    1
  mutation         :          2       0.05       0.08         58          0          0    0.00000   -1.00000    0.46875      0.850    0    1    0    1    0    0    0    1
  localbranching   :          2       0.08       0.06         60          0          0    0.00000   -1.00000    0.47259      0.850    0    1    0    1    0    0    0    1
  crossover        :          2       0.28       0.10         93          0          0    0.00000   -1.00000    0.46159      0.850    0    1    0    1    0    0    0    1
  proximity        :          2       0.19       0.10         68          0          0    0.00000   -1.00000    0.47145      0.850    0    1    0    1    0    0    0    1
  zeroobjective    :          2       0.05       0.29        631          1          1    0.00000   -1.00000    0.49839      0.850    1    0    0    1    0    0    0    1
  dins             :          2       0.17       0.06         64          0          0    0.00000   -1.00000    0.47138      0.850    0    1    0    1    0    0    0    1
  trustregion      :          0       0.00       0.00          0          0          0    0.00000   -1.00000    1.00000      0.900    0    0    0    0    0    0    0    0
Expressions        :   #IntEval  IntEvalTi   #RevProp  RevPropTi    DomReds    Cutoffs  #Estimate  EstimTime  Branching  #Simplify SimplifyTi Simplified
  pow              :          0       0.00          0       0.00          0          0          0       0.00          0          0       0.00          0
  prod             :       9900       0.00          0       0.00          0          0          0       0.00          0       6598       0.00          0
  sum              :          8       0.00          2       0.00          0          0          0       0.00          0          3       0.02          2
  var              :       6104       0.00          0       0.00          0          0          0       0.00          0      15163       0.00          0
  varidx           :          0       0.00          0       0.00          0          0          0       0.00          0          0       0.00          0
LP                 :       Time      Calls Iterations  Iter/call   Iter/sec  Time-0-It Calls-0-It    ItLimit
  primal LP        :      85.55      13778          0       0.00       0.00      85.46      13778
  dual LP          :    1708.11     232310   10700008      50.28    6264.24       9.01      19509
  lex dual LP      :       0.00          0          0       0.00          -
  barrier LP       :       0.00          0          0       0.00          -       0.00          0
  resolve instable :       0.00          0          0       0.00          -
  diving/probing LP:     467.96      18351    5176596     282.09   11062.05
  strong branching :      17.32       1578     169320     107.30    9775.98          -          -        287
    (at root node) :          -         19       3458     182.00          -
  conflict analysis:      10.07       6483      62026       9.57    6159.48
NLP relaxation     :
  solve time       :      42.24 (8 calls)
  convexity        :  nonconvex (49 linear rows, 0 convex ineq., 0 nonconvex ineq., 1648 nonlinear eq. or two-sided ineq.)
NLP Solvers        :  #Problems  ProblemTi    #Solves  SolveTime      #Iter  Time/Iter      #Okay #TimeLimit #IterLimit #LObjLimit #Interrupt  #NumError #EvalError  #OutOfMem #LicenseEr #OtherTerm   #GlobOpt    #LocOpt  #Feasible #LocInfeas #GlobInfea #Unbounded   #Unknown
  ipopt            :         12       9.68         46     682.95       1813       0.38         45          0          1          0          0          0          0          0          0          0          0         32          0         12          0          0          2
B&B Tree           :
  number of runs   :          1
  nodes            :     192295 (124170 internal, 68125 leaves)
  feasible leaves  :          2
  infeas. leaves   :         61
  objective leaves :      68062
  nodes (total)    :     192295 (124170 internal, 68125 leaves)
  nodes left       :      55531
  max depth        :         73
  max depth (total):         73
  backtracks       :      37706 (19.6%)
  early backtracks :          0 (0.0%)
  nodes exc. ref.  :          0 (0.0%)
  delayed cutoffs  :          1
  repropagations   :        486 (338 domain reductions, 0 cutoffs)
  avg switch length:       5.68
  switching time   :     136.45
Estim. Tree Size   :     385620
Estimation Tree    : 248341 nodes (192810 visited, 124170 internal, 68640 leaves, 55531 open), weight: 0.0000 completed 0.1026
Estimations        :      estim      value      trend resolution     smooth
  wbe              : 2535595114815328          -          -          -          -
  tree-profile     :         -1          -          -          -          -
  gap              :    8201800    0.67541    0.00001        128    8077227
  tree-weight      :     385620    0.00000    0.00000        128     385271
  leaf-frequency   :    1148410    0.35600    0.00004        128    1180235
  ssg              :    5585309    0.83806   -0.00004        128    5860724
  open-nodes       :     385620 55531.00000   31.98507        128     385271
Root Node          :
  First LP value   : -1.00000000000000e+00
  First LP Iters   :       1623 (11592.86 Iter/sec)
  First LP Time    :       0.14
  Final Dual Bound : -9.54545454545455e-01
  Final Root Iters :       2645
  Root LP Estimate : -3.44586767522749e-01
Solution           :
  Solutions found  :         25 (22 improvements)
  First Solution   : +1.00000000000000e+05   (in run 1, after 0 nodes, 0.02 seconds, depth 0, found by <trivial>)
  Gap First Sol.   :   infinite
  Gap Last Sol.    :      57.47 %
  Primal Bound     : -5.66464646464644e-01   (in run 1, after 15817 nodes, 613.93 seconds, depth 56, found by <crossover>)
  Dual Bound       : -8.38696286801294e-01
  Gap              :      48.06 %
Integrals          :      Total       Avg%
  primal-dual      :  125506.45      34.86
  primal-ref       :          -          - (not evaluated)
  dual-ref         :          -          - (not evaluated)
